data/benchmarks/bayes/90-15-10-q.cnf
p cnf 1065 927
c weights 0.671873 0.32812699999999995 1 1 1 1 1 1 1 1 1 1 1 1 1 1 1 1 1 1 1 1 1 1 1 1 1 1 1 1 1 1 1 1 1 1 1 1 1 1 1 1 1 1 1 1 1 1 1 1 1 1 1 1 1 1 1 1 1 1 1 1 1 1 1 1 1 1 1 1 1 1 1 1 1 1 1 1 1 1 1 1 1 1 1 1 1 1 1 1 1 1 1 1 1 1 1 1 1 1 1 1 1 1 1 1 1 1 1 1 1 1 1 1 1 1 1 1 1 1 1 1 1 1 1 1 1 1 1 1 1 1 1 1 1 1 1 1 1 1 1 1 1 1 1 1 1 1 1 1 1 1 1 1 1 1 1 1 1 1 1 1 1 1 1 1 1 1 1 1 1 1 1 1 1 1 1 1 1 1 1 1 1 1 1 1 1 1 1 1 1 1 1 1 1 1 1 1 1 1 1 1 1 1 1 1 1 1 1 1 1 1 1 1 1 1 1 1 1 1 1 1 1 1 1 1 1 1 1 1 1 1 1 1 1 1 1 1 1 1 1 1 1 1 1 1 1 1 1 1 1 1 1 1 1 1 1 1 1 1 1 1 1 1 1 1 1 1 1 1 1 1 1 1 1 1 1 1 1 1 1 1 1 1 1 1 1 1 1 1 1 1 1 1 1 1 1 1 1 1 1 1 1 1 1 1 1 1 1 1 1 1 1 1 1 1 1 1 1 1 1 1 1 1 1 1 1 1 1 1 1 1 1 1 1 1 1 1 1 1 1 1 1 1 1 1 1 1 1 1 1 1 1 1 1 1 1 1 1 1 1 1 1 1 1 1 1 1 1 1 1 1 1 1 1 1 1 1 1 1 1 1 1 1 1 1 1 1 1 1 1 1 1 1 1 1 1 1 1 1 1 1 1 1 1 1 1 1 1 1 1 1 1 1 1 1 1 1 1 1 1 1 1 1 1 1 1 1 1 1 1 1 1 1 1 1 1 1 1 1 1 1 1 1 1 1 1 1 1 1 0.5 0.5 0.5 0.5 0.5 0.5 0.5 0.5 0.5 0.5 0.5 0.5 0.5 0.5 0.5 0.5 0.5 0.5 0.5 0.5 0.5 0.5 0.5 0.5 0.5 0.5 0.5 0.5 0.5 0.5 0.5 0.5 0.5 0.5 0.5 0.5 0.5 0.5 0.5 0.5 0.5 0.5 0.5 0.5 0.5 0.5 0.5 0.5 0.5 0.5 0.5 0.5 0.292609 0.707391 0.900355 0.09964499999999998 0.5 0.5 0.5 0.5 0.5 0.5 0.5 0.5 0.5 0.5 0.5 0.5 0.5 0.5 0.5 0.5 0.5 0.5 0.5 0.5 0.5 0.5 0.5 0.5 0.5 0.5 0.5 0.5 0.5 0.5 0.5 0.5 0.5 0.5 0.5 0.5 0.5 0.5 0.5 0.5 0.5 0.5 0.5 0.5 0.5 0.5 0.5 0.5 0.5 0.5 0.5 0.5 0.5 0.5 0.5 0.5 0.5 0.5 0.5 0.5 0.5 0.5 0.5 0.5 0.5 0.5 0.5 0.5 0.5 0.5 0.5 0.5 0.5 0.5 0.5 0.5 0.78299 0.21701000000000004 0.8851 0.1149 0.257519 0.742481 0.927502 0.07249799999999995 0.5 0.5 0.5 0.5 0.5 0.5 0.5 0.5 0.5 0.5 0.5 0.5 0.5 0.5 0.5 0.5 0.5 0.5 0.5 0.5 0.5 0.5 0.5 0.5 0.523949 0.476051 0.515086 0.48491399999999996 0.353966 0.646034 0.74116 0.25883999999999996 0.0872838 0.9127162 0.0360726 0.9639274 0.5 0.5 0.5 0.5 0.5 0.5 0.5 0.5 0.5 0.5 0.5 0.5 0.5 0.5 0.5 0.5 0.093617 0.9063829999999999 0.0249346 0.9750654 0.992131 0.007869000000000015 0.331814 0.668186 0.5 0.5 0.5 0.5 0.5 0.5 0.5 0.5 0.5 0.5 0.5 0.5 0.5 0.5 0.5 0.5 0.5 0.5 0.5 0.5 0.5 0.5 0.5 0.5 0.5 0.5 0.5 0.5 0.5 0.5 0.5 0.5 0.5 0.5 0.5 0.5 0.5 0.5 0.5 0.5 0.5 0.5 0.5 0.5 0.5 0.5 0.5 0.5 0.5 0.5 0.5 0.5 0.5 0.5 0.5 0.5 0.5 0.5 0.5 0.5 0.5 0.5 0.5 0.5 0.5 0.5 0.5 0.5 0.5 0.5 0.5 0.5 0.5 0.5 0.5 0.5 0.5 0.5 0.5 0.5 0.5 0.5 0.5 0.5 0.5 0.5 0.5 0.5 0.5 0.5 0.5 0.5 0.5 0.5 0.5 0.5 0.5 0.5 0.5 0.5 0.5 0.5 0.5 0.5 0.5 0.5 0.5 0.5 0.5 0.5 0.5 0.5 0.5 0.5 0.5 0.5 0.5 0.5 0.5 0.5 0.5 0.5 0.5 0.5 0.64803 0.35197 0.200591 0.799409 0.764964 0.23503600000000002 0.363547 0.6364529999999999 0.5 0.5 0.5 0.5 0.5 0.5 0.5 0.5 0.5 0.5 0.5 0.5 0.5 0.5 0.5 0.5 0.5 0.5 0.5 0.5 0.5 0.5 0.5 0.5 0.5 0.5 0.5 0.5 0.5 0.5 0.5 0.5 0.751849 0.248151 0.488417 0.511583 0.761925 0.23807500000000004 0.560117 0.439883 0.5 0.5 0.5 0.5 0.5 0.5 0.5 0.5 0.5 0.5 0.5 0.5 0.5 0.5 0.5 0.5 0.806476 0.19352400000000003 0.0821515 0.9178485 0.73419 0.26581 0.0251025 0.9748975 0.5 0.5 0.5 0.5 0.5 0.5 0.5 0.5 0.5 0.5 0.5 0.5 0.5 0.5 0.5 0.5 0.5 0.5 0.5 0.5 0.825615 0.174385 0.582859 0.417141 0.377426 0.622574 0.235571 0.764429 0.5 0.5 0.5 0.5 0.5 0.5 0.5 0.5 0.5 0.5 0.5 0.5 0.5 0.5 0.5 0.5 0.5 0.5 0.5 0.5 0.5 0.5 0.5 0.5 0.864253 0.13574699999999995 0.217257 0.782743 0.819764 0.18023599999999995 0.0363651 0.9636349 0.5 0.5 0.5 0.5 0.5 0.5 0.5 0.5 0.5 0.5 0.5 0.5 0.5 0.5 0.5 0.5 0.5 0.5 0.5 0.5 0.5 0.5 0.5 0.5 0.5 0.5 0.5 0.5 0.5 0.5 0.5 0.5 0.096328 0.903672 0.142243 0.857757 0.963542 0.03645799999999999 0.960581 0.03941899999999998 0.5 0.5 0.5 0.5 0.5 0.5 0.5 0.5 0.5 0.5 0.5 0.5 0.5 0.5 0.5 0.5 0.5 0.5 0.5 0.5 0.5 0.5 0.5 0.5 0.5 0.5 0.5 0.5 0.5 0.5 0.5 0.5 0.5 0.5 0.5 0.5 0.5 0.5 0.5 0.5 0.5 0.5 0.5 0.5 0.5 0.5 0.5 0.5 0.5 0.5 0.5 0.5 0.5 0.5 0.5 0.5 0.5 0.5 0.5 0.5 0.5 0.5 0.5 0.5 0.5 0.5 0.5 0.5 0.5 0.5 0.5 0.5 0.5 0.5 0.5 0.5 0.5 0.5 0.5 0.5 0.5 0.5 0.5 0.5 0.5 0.5 0.5 0.5 0.5 0.5 0.5 0.5 0.5 0.5 0.5 0.5 0.5 0.5 0.5 0.5 0.5 0.5 0.5 0.5 0.5 0.5 0.5 0.5 0.5 0.5 0.5 0.5 0.5 0.5 0.5 0.5 0.841745 0.15825500000000003 0.340118 0.6598820000000001 0.150512 0.849488 0.245388 0.7546120000000001 0.5 0.5 0.5 0.5 0.5 0.5 0.5 0.5 0.5 0.5 0.5 0.5 0.5 0.5 0.5 0.5 0.5 0.5 0.5 0.5 0.5 0.5 0.5 0.5 0.5 0.5 0.5 0.5 0.5 0.5 0.5 0.5 0.5 0.5 0.5 0.5 0.5 0.5 0.5 0.5 0.5 0.5 0.5 0.5 0.5 0.5 0.5 0.5 0.5 0.5 0.5 0.5 0.5 0.5 0.5 0.5 0.5 0.5 0.5 0.5 0.5 0.5 0.5 0.5 0.5 0.5 0.5 0.5 0.5 0.5 0.5 0.5 0.5 0.5 0.5 0.5 0.00428893 0.99571107 0.10185 0.89815 0.845653 0.154347 0.606472 0.393528 0.5 0.5 0.5 0.5 0.5 0.5 0.5 0.5 0.5 0.5 0.5 0.5 0.5 0.5 0.5 0.5 0.5 0.5 0.5 0.5 0.5 0.5 0.5 0.5 0.5 0.5 0.5 0.5 0.5 0.5 0.5 0.5 0.5 0.5 0.5 0.5 0.5 0.5 0.5 0.5 0.5 0.5 0.5 0.5 0.5 0.5 0.5 0.5 0.5 0.5 0.5 0.5 0.5 0.5 0.5 0.5 0.5 0.5 0.5 0.5 0.5 0.5 0.5 0.5 0.5 0.5 0.5 0.5 0.5 0.5 0.5 0.5 0.5 0.5 0.5 0.5 0.5 0.5 0.5 0.5 0.5 0.5 0.5 0.5 0.5 0.5 0.5 0.5 0.5 0.5 0.5 0.5 0.5 0.5 0.5 0.5 0.5 0.5 0.5 0.5 0.5 0.5 0.5 0.5 0.5 0.5 0.5 0.5 0.5 0.5 0.5 0.5 0.5 0.5 0.5 0.5 0.5 0.5 0.5 0.5 0.5 0.5 0.5 0.5 0.5 0.5 0.5 0.5 0.5 0.5 0.5 0.5 0.5 0.5 0.5 0.5 0.5 0.5 0.5 0.5 0.5 0.5 0.5 0.5 0.5 0.5 0.5 0.5 0.5 0.5 0.5 0.5 0.5 0.5 0.5 0.5 0.5 0.5 0.5 0.5 0.5 0.5 0.5 0.5 0.5 0.5 0.5 0.5 0.5 0.5 0.5 0.5 0.5 0.5 0.5 0.5 0.5 0.5 0.5 0.5 0.5 0.5 0.5 0.5 0.5 0.5 0.5 0.5 0.5 0.5 0.5 0.5 0.5 0.5 0.5 0.5 0.5 0.5 0.5 0.5 0.5 0.5 0.5 0.5 0.5 0.5 0.5 0.5 0.5 0.5 0.5 0.5 0.5 0.5 0.5 0.5 0.5 0.5 0.5 0.5 0.5 0.5 0.5 0.5 0.5 0.5 0.5 0.5 0.5 0.5 0.5 0.5 0.5 0.5 0.5 0.5 0.5 0.5 0.5 0.5 0.5 0.5 0.5 0.5 0.5 0.5 0.5 0.5 0.233799 0.766201 0.140896 0.859104 0.385547 0.614453 0.630096 0.369904 0.5 0.5 0.5 0.5 0.5 0.5 0.5 0.5 0.490101 0.509899 0.566095 0.433905 0.740144 0.259856 0.639133 0.36086700000000005 0.5 0.5 0.5 0.5 0.5 0.5 0.5 0.5 0.574493 0.42550699999999997 0.722895 0.27710500000000005 0.5 0.5 0.5 0.5 0.5 0.5 0.5 0.5 0.5 0.5 0.5 0.5 0.5 0.5 0.5 0.5 0.5 0.5 0.5 0.5 0.5 0.5 0.5 0.5 0.5 0.5 0.5 0.5 0.5 0.5 0.5 0.5 0.5 0.5 0.5 0.5 0.5 0.5 0.5 0.5 0.5 0.5 0.5 0.5 0.5 0.5 0.5 0.5 0.5 0.5 0.5 0.5 0.5 0.5 0.5 0.5 0.5 0.5 0.5 0.5 0.5 0.5 0.5 0.5 0.5 0.5 0.5 0.5 0.5 0.5 0.5 0.5 0.5 0.5 0.5 0.5 0.5 0.5 0.5 0.5 0.5 0.5 0.5 0.5 0.5 0.5 0.5 0.5 0.5 0.5 0.5 0.5 0.5 0.5 0.5 0.5 0.5 0.5 0.5 0.5 0.5 0.5 0.5 0.5 0.5 0.5 0.5 0.5 0.5 0.5 0.5 0.5 0.5 0.5 0.5 0.5 0.5 0.5 0.5 0.5 0.5 0.5 0.5 0.5 0.5 0.5 0.5 0.5 0.5 0.5 0.5 0.5 0.5 0.5 0.5 0.5 0.5 0.5 0.5 0.5 0.5 0.5 0.5 0.5 0.5 0.5 0.5 0.5 0.5 0.5 0.5 0.5 0.5 0.5 0.5 0.5 0.5 0.5 0.5 0.5 0.5 0.5 0.5 0.5 0.5 0.5 0.5 0.5 0.5 0.5 0.5 0.5 0.5 0.5 0.5 0.5 0.5 0.5 0.5 0.5 0.5 0.5 0.5 0.5 0.5 0.5 0.5 0.5 0.5 0.5 0.5 0.5 0.5 0.5 0.5 0.5 0.5 0.5 0.5 0.5 0.5 0.5 0.5 0.5 0.5 0.5 0.5 0.5 0.5 0.5 0.5 0.5 0.5 0.5 0.5 0.5 0.5 0.5 0.5 0.5 0.5 0.5 0.5 0.5 0.5 0.5 0.5 0.5 0.5 0.5 0.5 0.5 0.5 0.5 0.5 0.5 0.5 0.5 0.5 0.5 0.5 0.5 0.5 0.5 0.5 0.5 0.5 0.5 0.5 0.5 0.5 0.5 0.5 0.5 0.5 0.5 0.510845 0.489155 0.248776 0.751224 0.788788 0.21121199999999996 0.332891 0.667109 0.5 0.5 0.5 0.5 0.5 0.5 0.5 0.5 0.5 0.5 0.5 0.5 0.5 0.5 0.5 0.5 0.5 0.5 0.5 0.5 0.5 0.5 0.5 0.5 0.5 0.5 0.5 0.5 0.5 0.5 0.5 0.5 0.5 0.5 0.5 0.5 0.5 0.5 0.5 0.5 0.5 0.5 0.5 0.5 0.5 0.5 0.5 0.5 0.5 0.5 0.5 0.5 0.5 0.5 0.5 0.5 0.5 0.5 0.5 0.5 0.5 0.5 0.5 0.5 0.5 0.5 0.5 0.5 0.5 0.5 0.5 0.5 0.5 0.5 0.5 0.5 0.5 0.5 0.5 0.5 0.5 0.5 0.5 0.5 0.5 0.5 0.5 0.5 0.5 0.5 0.5 0.5 0.5 0.5 0.5 0.5 0.5 0.5 0.5 0.5 0.5 0.5 0.5 0.5 0.5 0.5 0.5 0.5 0.73098 0.26902000000000004 0.827899 0.17210099999999995 0.407312 0.592688 0.944801 0.055199 0.5 0.5 0.5 0.5 0.5 0.5 0.5 0.5 0.5 0.5 0.5 0.5 0.5 0.5 0.5 0.5 0.5 0.5 0.5 0.5 0.5 0.5 0.5 0.5 0.5 0.5 0.5 0.5 0.5 0.5 0.5 0.5 0.5 0.5 0.5 0.5 0.5 0.5 0.5 0.5 0.5 0.5 0.5 0.5 0.5 0.5 0.5 0.5 0.5 0.5 0.5 0.5 0.5 0.5 0.5 0.5 0.182277 0.817723 0.347272 0.652728 0.446633 0.5533669999999999 0.105388 0.894612 0.5 0.5 0.5 0.5 0.5 0.5 0.5 0.5 0.5 0.5 0.5 0.5 0.5 0.5 0.5 0.5 0.5 0.5 0.5 0.5 0.5 0.5 0.5 0.5 0.5 0.5 0.5 0.5 0.5 0.5 0.5 0.5 0.5 0.5 0.5 0.5 0.5 0.5 0.5 0.5 0.5 0.5 0.5 0.5 0.5 0.5 0.5 0.5 0.5 0.5 0.5 0.5 0.5 0.5 0.5 0.5 0.5 0.5 0.5 0.5 0.5 0.5 0.5 0.5 0.5 0.5 0.5 0.5 0.5 0.5 0.5 0.5 0.5 0.5 0.5 0.5 0.5 0.5 0.5 0.5 0.5 0.5 0.5 0.5 0.413526 0.5864739999999999 0.923786 0.076214 0.188772 0.8112280000000001 0.198016 0.801984 0.5 0.5 0.5 0.5 0.5 0.5 0.5 0.5 0.5 0.5 0.5 0.5 0.5 0.5 0.5 0.5 0.830127 0.16987300000000005 0.28045 0.71955 0.166072 0.833928 0.345509 0.6544909999999999 0.5 0.5 0.5 0.5 0.5 0.5 0.5 0.5 0.5 0.5 0.5 0.5 0.5 0.5 0.5 0.5 0.5 0.5 0.5 0.5 0.468698 0.5313019999999999 0.116911 0.883089 0.713217 0.286783 0.897838 0.10216199999999998 0.5 0.5 0.5 0.5 0.5 0.5 0.5 0.5 0.5 0.5 0.5 0.5 0.5 0.5 0.5 0.5 0.5 0.5 0.5 0.5 0.5 0.5 0.5 0.5 0.5 0.5 0.5 0.5 0.5 0.5 0.5 0.5 0.5 0.5 0.5 0.5 0.5 0.5 0.5 0.5 0.5 0.5 0.5 0.5 0.5 0.5 0.5 0.5 0.5 0.5 0.5 0.5 0.5 0.5 0.5 0.5 0.5 0.5 0.5 0.5 0.5 0.5 0.5 0.5 0.5 0.5 0.5 0.5 0.5 0.5 0.5 0.5 0.5 0.5 0.5 0.5 0.5 0.5 0.5 0.5 0.5 0.5 0.5 0.5 0.5 0.5 0.5 0.5 0.833696 0.166304 0.988885 0.011114999999999986 0.367439 0.6325609999999999 0.765629 0.234371 0.5 0.5 0.5 0.5 0.5 0.5 0.5 0.5
-1 -2 0
1 2 0
-2 3 0
2 -3 0
-3 -4 0
3 4 0
-4 -5 0
4 5 0
-5 -6 0
5 6 0
-6 -7 0
6 7 0
-7 -8 0
7 8 0
-8 9 0
8 -9 0
-9 10 0
9 -10 0
-10 -11 0
10 11 0
-11 -12 0
11 12 0
-12 13 0
12 -13 0
-13 -14 0
13 14 0
-14 -252 15 0
-14 252 -15 0
14 -253 15 0
14 253 -15 0
-1 -16 0
1 16 0
-16 -2 -17 0
-16 2 17 0
16 -2 -17 0
16 2 -17 0
-17 -3 18 0
-17 3 -18 0
17 -3 -18 0
17 3 18 0
-18 -4 19 0
-18 4 19 0
18 -4 19 0
18 4 -19 0
-19 -5 -20 0
-19 5 -20 0
19 -5 -20 0
19 5 20 0
-20 -6 21 0
-20 6 -21 0
20 -6 21 0
20 6 21 0
-21 -7 22 0
-21 7 -22 0
21 -7 22 0
21 7 22 0
-22 -8 23 0
-22 8 -23 0
22 -8 -23 0
22 8 23 0
-23 -9 24 0
-23 9 -24 0
23 -9 -24 0
23 9 -24 0
-24 -10 25 0
-24 10 25 0
24 -10 -25 0
24 10 -25 0
-25 -11 -292 26 0
-25 -11 292 -26 0
-25 11 -293 26 0
-25 11 293 -26 0
25 -11 -294 26 0
25 -11 294 -26 0
25 11 -295 26 0
25 11 295 -26 0
-26 -12 27 0
-26 12 27 0
26 -12 27 0
26 12 -27 0
-27 -13 -28 0
-27 13 28 0
27 -13 28 0
27 13 28 0
-28 -14 -29 0
-28 14 29 0
28 -14 29 0
28 14 29 0
-29 -15 -308 30 0
-29 -15 308 -30 0
-29 15 -309 30 0
-29 15 309 -30 0
29 -15 -310 30 0
29 -15 310 -30 0
29 15 -311 30 0
29 15 311 -30 0
-16 -312 31 0
-16 312 -31 0
16 -313 31 0
16 313 -31 0
-31 -17 32 0
-31 17 32 0
31 -17 -32 0
31 17 32 0
-32 -18 33 0
-32 18 -33 0
32 -18 33 0
32 18 -33 0
-33 -19 -322 34 0
-33 -19 322 -34 0
-33 19 -323 34 0
-33 19 323 -34 0
33 -19 -324 34 0
33 -19 324 -34 0
33 19 -325 34 0
33 19 325 -34 0
-34 -20 -35 0
-34 20 -35 0
34 -20 -35 0
34 20 35 0
-35 -21 36 0
-35 21 36 0
35 -21 -36 0
35 21 36 0
-36 -22 37 0
-36 22 37 0
36 -22 37 0
36 22 -37 0
-37 -23 38 0
-37 23 -38 0
37 -23 -38 0
37 23 -38 0
-38 -24 -39 0
-38 24 39 0
38 -24 39 0
38 24 -39 0
-39 -25 40 0
-39 25 40 0
39 -25 40 0
39 25 -40 0
-40 -26 41 0
-40 26 -41 0
40 -26 -41 0
40 26 41 0
-41 -27 42 0
-41 27 42 0
41 -27 -42 0
41 27 42 0
-42 -28 43 0
-42 28 43 0
42 -28 -43 0
42 28 43 0
-43 -29 44 0
-43 29 -44 0
43 -29 -44 0
43 29 44 0
-44 -30 -45 0
-44 30 45 0
44 -30 45 0
44 30 45 0
-31 -46 0
31 46 0
-46 -32 47 0
-46 32 -47 0
46 -32 47 0
46 32 47 0
-47 -33 48 0
-47 33 -48 0
47 -33 48 0
47 33 -48 0
-48 -34 49 0
-48 34 -49 0
48 -34 -49 0
48 34 -49 0
-49 -35 50 0
-49 35 -50 0
49 -35 50 0
49 35 50 0
-50 -36 -388 51 0
-50 -36 388 -51 0
-50 36 -389 51 0
-50 36 389 -51 0
50 -36 -390 51 0
50 -36 390 -51 0
50 36 -391 51 0
50 36 391 -51 0
-51 -37 -52 0
-51 37 52 0
51 -37 -52 0
51 37 -52 0
-52 -38 53 0
-52 38 -53 0
52 -38 -53 0
52 38 -53 0
-53 -39 -54 0
-53 39 54 0
53 -39 54 0
53 39 54 0
-54 -40 55 0
-54 40 -55 0
54 -40 -55 0
54 40 -55 0
-55 -41 -408 56 0
-55 -41 408 -56 0
-55 41 -409 56 0
-55 41 409 -56 0
55 -41 -410 56 0
55 -41 410 -56 0
55 41 -411 56 0
55 41 411 -56 0
-56 -42 57 0
-56 42 57 0
56 -42 57 0
56 42 -57 0
-57 -43 -58 0
-57 43 58 0
57 -43 -58 0
57 43 58 0
-58 -44 -420 59 0
-58 -44 420 -59 0
-58 44 -421 59 0
-58 44 421 -59 0
58 -44 -422 59 0
58 -44 422 -59 0
58 44 -423 59 0
58 44 423 -59 0
-59 -45 -60 0
-59 45 60 0
59 -45 60 0
59 45 -60 0
-46 61 0
46 -61 0
-61 -47 -62 0
-61 47 62 0
61 -47 62 0
61 47 -62 0
-62 -48 -434 63 0
-62 -48 434 -63 0
-62 48 -435 63 0
-62 48 435 -63 0
62 -48 -436 63 0
62 -48 436 -63 0
62 48 -437 63 0
62 48 437 -63 0
-63 -49 64 0
-63 49 -64 0
63 -49 64 0
63 49 64 0
-64 -50 -65 0
-64 50 65 0
64 -50 65 0
64 50 65 0
-65 -51 66 0
-65 51 -66 0
65 -51 -66 0
65 51 -66 0
-66 -52 -450 67 0
-66 -52 450 -67 0
-66 52 -451 67 0
-66 52 451 -67 0
66 -52 -452 67 0
66 -52 452 -67 0
66 52 -453 67 0
66 52 453 -67 0
-67 -53 -68 0
-67 53 -68 0
67 -53 68 0
67 53 -68 0
-68 -54 69 0
-68 54 69 0
68 -54 -69 0
68 54 -69 0
-69 -55 70 0
-69 55 70 0
69 -55 -70 0
69 55 70 0
-70 -56 71 0
-70 56 -71 0
70 -56 71 0
70 56 71 0
-71 -57 -470 72 0
-71 -57 470 -72 0
-71 57 -471 72 0
-71 57 471 -72 0
71 -57 -472 72 0
71 -57 472 -72 0
71 57 -473 72 0
71 57 473 -72 0
-72 -58 73 0
-72 58 -73 0
72 -58 73 0
72 58 73 0
-73 -59 -74 0
-73 59 74 0
73 -59 -74 0
73 59 74 0
-74 -60 75 0
-74 60 75 0
74 -60 75 0
74 60 -75 0
-61 76 0
61 -76 0
-76 -62 77 0
-76 62 -77 0
76 -62 -77 0
76 62 -77 0
-77 -63 -78 0
-77 63 78 0
77 -63 78 0
77 63 -78 0
-78 -64 79 0
-78 64 -79 0
78 -64 79 0
78 64 -79 0
-79 -65 80 0
-79 65 -80 0
79 -65 -80 0
79 65 -80 0
-80 -66 -81 0
-80 66 81 0
80 -66 81 0
80 66 81 0
-81 -67 -82 0
-81 67 82 0
81 -67 -82 0
81 67 82 0
-82 -68 83 0
-82 68 83 0
82 -68 83 0
82 68 -83 0
-83 -69 -84 0
-83 69 -84 0
83 -69 84 0
83 69 -84 0
-84 -70 85 0
-84 70 85 0
84 -70 -85 0
84 70 -85 0
-85 -71 -86 0
-85 71 86 0
85 -71 -86 0
85 71 -86 0
-86 -72 -87 0
-86 72 87 0
86 -72 -87 0
86 72 -87 0
-87 -73 -532 88 0
-87 -73 532 -88 0
-87 73 -533 88 0
-87 73 533 -88 0
87 -73 -534 88 0
87 -73 534 -88 0
87 73 -535 88 0
87 73 535 -88 0
-88 -74 89 0
-88 74 89 0
88 -74 -89 0
88 74 -89 0
-89 -75 90 0
-89 75 -90 0
89 -75 -90 0
89 75 90 0
-76 -91 0
76 91 0
-91 -77 -92 0
-91 77 -92 0
91 -77 92 0
91 77 -92 0
-92 -78 -93 0
-92 78 -93 0
92 -78 -93 0
92 78 93 0
-93 -79 94 0
-93 79 94 0
93 -79 -94 0
93 79 -94 0
-94 -80 -95 0
-94 80 -95 0
94 -80 95 0
94 80 -95 0
-95 -81 96 0
-95 81 -96 0
95 -81 -96 0
95 81 96 0
-96 -82 97 0
-96 82 -97 0
96 -82 97 0
96 82 97 0
-97 -83 98 0
-97 83 98 0
97 -83 -98 0
97 83 -98 0
-98 -84 -574 99 0
-98 -84 574 -99 0
-98 84 -575 99 0
-98 84 575 -99 0
98 -84 -576 99 0
98 -84 576 -99 0
98 84 -577 99 0
98 84 577 -99 0
-99 -85 -100 0
-99 85 100 0
99 -85 -100 0
99 85 -100 0
-100 -86 -101 0
-100 86 -101 0
100 -86 -101 0
100 86 101 0
-101 -87 -102 0
-101 87 -102 0
101 -87 102 0
101 87 -102 0
-102 -88 103 0
-102 88 103 0
102 -88 -103 0
102 88 -103 0
-103 -89 -104 0
-103 89 -104 0
103 -89 104 0
103 89 -104 0
-104 -90 -105 0
-104 90 105 0
104 -90 105 0
104 90 -105 0
-91 106 0
91 -106 0
-106 -92 107 0
-106 92 -107 0
106 -92 107 0
106 92 107 0
-107 -93 108 0
-107 93 -108 0
107 -93 108 0
107 93 108 0
-108 -94 109 0
-108 94 109 0
108 -94 109 0
108 94 -109 0
-109 -95 110 0
-109 95 110 0
109 -95 -110 0
109 95 110 0
-110 -96 -111 0
-110 96 111 0
110 -96 111 0
110 96 -111 0
-111 -97 -112 0
-111 97 -112 0
111 -97 112 0
111 97 112 0
-112 -98 -113 0
-112 98 -113 0
112 -98 113 0
112 98 113 0
-113 -99 -114 0
-113 99 -114 0
113 -99 114 0
113 99 114 0
-114 -100 -115 0
-114 100 -115 0
114 -100 115 0
114 100 115 0
-115 -101 -116 0
-115 101 -116 0
115 -101 -116 0
115 101 116 0
-116 -102 -117 0
-116 102 -117 0
116 -102 -117 0
116 102 117 0
-117 -103 118 0
-117 103 118 0
117 -103 -118 0
117 103 -118 0
-118 -104 119 0
-118 104 -119 0
118 -104 -119 0
118 104 -119 0
-119 -105 -120 0
-119 105 120 0
119 -105 -120 0
119 105 120 0
-106 121 0
106 -121 0
-121 -107 122 0
-121 107 -122 0
121 -107 122 0
121 107 122 0
-122 -108 123 0
-122 108 123 0
122 -108 -123 0
122 108 -123 0
-123 -109 124 0
-123 109 -124 0
123 -109 124 0
123 109 -124 0
-124 -110 -125 0
-124 110 125 0
124 -110 125 0
124 110 -125 0
-125 -111 126 0
-125 111 -126 0
125 -111 -126 0
125 111 -126 0
-126 -112 127 0
-126 112 127 0
126 -112 -127 0
126 112 -127 0
-127 -113 -128 0
-127 113 128 0
127 -113 -128 0
127 113 128 0
-128 -114 129 0
-128 114 -129 0
128 -114 -129 0
128 114 -129 0
-129 -115 -130 0
-129 115 130 0
129 -115 -130 0
129 115 130 0
-130 -116 -131 0
-130 116 131 0
130 -116 -131 0
130 116 131 0
-131 -117 -702 132 0
-131 -117 702 -132 0
-131 117 -703 132 0
-131 117 703 -132 0
131 -117 -704 132 0
131 -117 704 -132 0
131 117 -705 132 0
131 117 705 -132 0
-132 -118 133 0
-132 118 -133 0
132 -118 -133 0
132 118 133 0
-133 -119 -710 134 0
-133 -119 710 -134 0
-133 119 -711 134 0
-133 119 711 -134 0
133 -119 -712 134 0
133 -119 712 -134 0
133 119 -713 134 0
133 119 713 -134 0
-134 -120 135 0
-134 120 -135 0
134 -120 -135 0
134 120 135 0
-121 -718 136 0
-121 718 -136 0
121 -719 136 0
121 719 -136 0
-136 -122 -137 0
-136 122 137 0
136 -122 137 0
136 122 -137 0
-137 -123 138 0
-137 123 -138 0
137 -123 138 0
137 123 -138 0
-138 -124 139 0
-138 124 139 0
138 -124 -139 0
138 124 -139 0
-139 -125 140 0
-139 125 140 0
139 -125 -140 0
139 125 140 0
-140 -126 -141 0
-140 126 -141 0
140 -126 -141 0
140 126 141 0
-141 -127 -142 0
-141 127 -142 0
141 -127 142 0
141 127 -142 0
-142 -128 143 0
-142 128 143 0
142 -128 -143 0
142 128 -143 0
-143 -129 144 0
-143 129 144 0
143 -129 144 0
143 129 -144 0
-144 -130 -145 0
-144 130 145 0
144 -130 -145 0
144 130 145 0
-145 -131 -146 0
-145 131 -146 0
145 -131 146 0
145 131 -146 0
-146 -132 -147 0
-146 132 147 0
146 -132 -147 0
146 132 -147 0
-147 -133 148 0
-147 133 148 0
147 -133 -148 0
147 133 148 0
-148 -134 149 0
-148 134 -149 0
148 -134 -149 0
148 134 149 0
-149 -135 -150 0
-149 135 150 0
149 -135 150 0
149 135 150 0
-136 -151 0
136 151 0
-151 -137 152 0
-151 137 -152 0
151 -137 152 0
151 137 152 0
-152 -138 153 0
-152 138 -153 0
152 -138 -153 0
152 138 153 0
-153 -139 -154 0
-153 139 -154 0
153 -139 154 0
153 139 154 0
-154 -140 -155 0
-154 140 155 0
154 -140 155 0
154 140 155 0
-155 -141 156 0
-155 141 156 0
155 -141 156 0
155 141 -156 0
-156 -142 157 0
-156 142 157 0
156 -142 -157 0
156 142 157 0
-157 -143 158 0
-157 143 -158 0
157 -143 -158 0
157 143 -158 0
-158 -144 -159 0
-158 144 159 0
158 -144 159 0
158 144 -159 0
-159 -145 -160 0
-159 145 160 0
159 -145 -160 0
159 145 160 0
-160 -146 -161 0
-160 146 161 0
160 -146 161 0
160 146 161 0
-161 -147 162 0
-161 147 162 0
161 -147 -162 0
161 147 -162 0
-162 -148 -163 0
-162 148 163 0
162 -148 163 0
162 148 -163 0
-163 -149 164 0
-163 149 -164 0
163 -149 -164 0
163 149 164 0
-164 -150 165 0
-164 150 -165 0
164 -150 -165 0
164 150 165 0
-151 -166 0
151 166 0
-166 -152 167 0
-166 152 167 0
166 -152 -167 0
166 152 -167 0
-167 -153 -168 0
-167 153 168 0
167 -153 -168 0
167 153 168 0
-168 -154 169 0
-168 154 -169 0
168 -154 169 0
168 154 169 0
-169 -155 -848 170 0
-169 -155 848 -170 0
-169 155 -849 170 0
-169 155 849 -170 0
169 -155 -850 170 0
169 -155 850 -170 0
169 155 -851 170 0
169 155 851 -170 0
-170 -156 171 0
-170 156 -171 0
170 -156 -171 0
170 156 171 0
-171 -157 -172 0
-171 157 -172 0
171 -157 172 0
171 157 -172 0
-172 -158 -173 0
-172 158 173 0
172 -158 173 0
172 158 -173 0
-173 -159 174 0
-173 159 -174 0
173 -159 174 0
173 159 -174 0
-174 -160 -175 0
-174 160 175 0
174 -160 175 0
174 160 175 0
-175 -161 -176 0
-175 161 176 0
175 -161 -176 0
175 161 176 0
-176 -162 177 0
-176 162 -177 0
176 -162 177 0
176 162 177 0
-177 -163 178 0
-177 163 178 0
177 -163 178 0
177 163 -178 0
-178 -164 -179 0
-178 164 179 0
178 -164 179 0
178 164 -179 0
-179 -165 -180 0
-179 165 180 0
179 -165 180 0
179 165 180 0
-166 -181 0
166 181 0
-181 -167 182 0
-181 167 182 0
181 -167 182 0
181 167 -182 0
-182 -168 -183 0
-182 168 -183 0
182 -168 -183 0
182 168 183 0
-183 -169 184 0
-183 169 -184 0
183 -169 184 0
183 169 -184 0
-184 -170 -906 185 0
-184 -170 906 -185 0
-184 170 -907 185 0
-184 170 907 -185 0
184 -170 -908 185 0
184 -170 908 -185 0
184 170 -909 185 0
184 170 909 -185 0
-185 -171 186 0
-185 171 -186 0
185 -171 -186 0
185 171 -186 0
-186 -172 -187 0
-186 172 -187 0
186 -172 187 0
186 172 -187 0
-187 -173 -188 0
-187 173 188 0
187 -173 188 0
187 173 188 0
-188 -174 189 0
-188 174 -189 0
188 -174 189 0
188 174 189 0
-189 -175 190 0
-189 175 -190 0
189 -175 190 0
189 175 -190 0
-190 -176 -191 0
-190 176 -191 0
190 -176 191 0
190 176 -191 0
-191 -177 192 0
-191 177 192 0
191 -177 192 0
191 177 -192 0
-192 -178 -938 193 0
-192 -178 938 -193 0
-192 178 -939 193 0
-192 178 939 -193 0
192 -178 -940 193 0
192 -178 940 -193 0
192 178 -941 193 0
192 178 941 -193 0
-193 -179 -194 0
-193 179 -194 0
193 -179 194 0
193 179 194 0
-194 -180 195 0
-194 180 -195 0
194 -180 -195 0
194 180 -195 0
-181 196 0
181 -196 0
-196 -182 -197 0
-196 182 -197 0
196 -182 197 0
196 182 197 0
-197 -183 -198 0
-197 183 -198 0
197 -183 198 0
197 183 198 0
-198 -184 -199 0
-198 184 -199 0
198 -184 -199 0
198 184 199 0
-199 -185 -200 0
-199 185 200 0
199 -185 -200 0
199 185 -200 0
-200 -186 201 0
-200 186 -201 0
200 -186 201 0
200 186 -201 0
-201 -187 202 0
-201 187 202 0
201 -187 -202 0
201 187 -202 0
-202 -188 203 0
-202 188 -203 0
202 -188 -203 0
202 188 -203 0
-203 -189 -204 0
-203 189 204 0
203 -189 -204 0
203 189 204 0
-204 -190 -984 205 0
-204 -190 984 -205 0
-204 190 -985 205 0
-204 190 985 -205 0
204 -190 -986 205 0
204 -190 986 -205 0
204 190 -987 205 0
204 190 987 -205 0
-205 -191 -206 0
-205 191 206 0
205 -191 206 0
205 191 206 0
-206 -192 -207 0
-206 192 -207 0
206 -192 -207 0
206 192 207 0
-207 -193 -996 208 0
-207 -193 996 -208 0
-207 193 -997 208 0
-207 193 997 -208 0
207 -193 -998 208 0
207 -193 998 -208 0
207 193 -999 208 0
207 193 999 -208 0
-208 -194 -209 0
-208 194 -209 0
208 -194 -209 0
208 194 209 0
-209 -195 210 0
-209 195 210 0
209 -195 210 0
209 195 -210 0
-196 -211 0
196 211 0
-211 -197 -1010 212 0
-211 -197 1010 -212 0
-211 197 -1011 212 0
-211 197 1011 -212 0
211 -197 -1012 212 0
211 -197 1012 -212 0
211 197 -1013 212 0
211 197 1013 -212 0
-212 -198 213 0
-212 198 -213 0
212 -198 -213 0
212 198 -213 0
-213 -199 -214 0
-213 199 214 0
213 -199 214 0
213 199 214 0
-214 -200 -215 0
-214 200 215 0
214 -200 215 0
214 200 -215 0
-215 -201 -216 0
-215 201 -216 0
215 -201 216 0
215 201 -216 0
-216 -202 217 0
-216 202 -217 0
216 -202 -217 0
216 202 217 0
-217 -203 -218 0
-217 203 -218 0
217 -203 218 0
217 203 -218 0
-218 -204 -219 0
-218 204 -219 0
218 -204 219 0
218 204 -219 0
-219 -205 220 0
-219 205 -220 0
219 -205 220 0
219 205 -220 0
-220 -206 -221 0
-220 206 -221 0
220 -206 221 0
220 206 221 0
-221 -207 -222 0
-221 207 222 0
221 -207 222 0
221 207 222 0
-222 -208 -223 0
-222 208 -223 0
222 -208 223 0
222 208 223 0
-223 -209 -1058 224 0
-223 -209 1058 -224 0
-223 209 -1059 224 0
-223 209 1059 -224 0
223 -209 -1060 224 0
223 -209 1060 -224 0
223 209 -1061 224 0
223 209 1061 -224 0
-224 -210 -225 0
-224 210 -225 0
224 -210 225 0
224 210 -225 0
225 0
