data/benchmarks/bayes/90-15-10-q.gr
p tw 1065 868
166 181
63 434
198 213
15 30
67 68
132 704
47 62
99 100
59 73
107 122
159 160
139 154
8 9
44 420
26 295
40 41
193 939
199 214
48 63
100 101
80 95
52 451
132 133
224 1061
92 106
140 155
192 193
98 576
41 42
172 187
66 453
73 74
184 198
33 47
81 96
133 134
178 941
14 15
125 139
117 702
173 188
22 37
74 75
106 107
66 80
114 129
166 167
47 48
158 172
206 221
7 21
209 1059
55 70
107 108
41 410
131 703
99 113
147 162
199 200
48 49
80 81
191 205
40 54
140 141
169 851
132 146
223 1060
29 310
81 82
73 87
173 174
22 23
25 294
165 179
207 999
14 28
114 115
87 534
206 207
48 435
55 56
134 713
198 212
47 61
147 148
207 208
139 153
193 938
21 36
199 213
80 94
113 128
56 411
170 909
172 186
66 452
205 220
54 69
59 422
181 182
146 161
14 252
173 187
87 102
119 710
214 215
15 253
179 194
28 43
206 220
41 409
88 103
131 702
120 135
21 22
147 161
180 195
44 423
29 44
61 76
113 114
121 136
153 168
205 206
223 1059
2 17
54 55
55 410
62 77
94 109
146 147
154 169
3 18
35 50
87 88
95 110
127 142
179 180
28 29
187 202
134 712
36 51
88 89
68 83
185 906
62 436
128 143
160 175
29 30
61 62
21 35
69 84
121 122
101 116
153 154
2 3
113 127
161 176
213 214
10 25
62 63
170 908
94 95
205 219
54 68
102 117
154 155
13 27
59 421
3 4
31 313
35 36
146 160
194 209
105 119
197 1010
43 58
95 96
192 941
127 128
87 101
135 150
187 188
36 37
205 987
68 69
179 193
28 42
76 91
128 129
160 161
120 134
212 1013
168 183
220 221
79 93
69 70
101 102
161 162
20 34
10 11
208 997
72 471
153 167
2 16
19 325
55 409
102 103
94 108
194 195
53 67
43 44
58 420
35 49
57 473
84 576
127 141
190 984
86 100
76 77
9 24
68 82
168 169
27 41
62 435
160 174
42 57
101 115
134 149
60 74
30 311
36 391
75 90
184 909
31 312
16 31
108 123
34 323
9 10
121 718
71 470
205 986
49 64
186 200
133 710
15 309
109 124
170 848
212 1012
99 577
42 43
201 216
82 97
134 135
142 157
193 998
208 996
72 470
23 38
19 324
55 408
73 533
83 98
115 130
16 17
175 190
56 71
108 109
193 207
116 131
84 575
49 50
208 223
57 72
109 110
167 182
89 104
204 985
51 388
149 164
201 202
50 51
30 45
82 83
42 56
90 105
142 143
200 215
23 24
134 148
30 310
182 197
36 390
83 84
141 156
115 116
75 89
123 138
175 176
34 48
24 25
184 908
56 57
58 423
64 79
116 117
174 189
155 850
108 122
34 322
156 171
67 81
208 209
57 58
167 168
211 1010
89 90
49 63
159 173
97 112
149 150
8 22
207 222
15 308
189 204
212 1011
100 114
148 163
200 201
82 96
192 206
182 183
41 55
11 292
31 32
141 142
193 997
23 37
133 147
123 124
73 532
181 196
136 719
115 129
215 216
74 88
33 325
64 65
122 137
174 175
56 70
156 157
15 29
132 703
5 6
84 574
88 535
107 121
97 98
71 473
26 294
167 181
89 103
204 984
189 190
48 62
148 149
170 851
52 450
224 1060
30 44
140 154
63 78
98 575
200 214
222 223
81 95
178 940
4 19
141 155
67 453
22 36
122 123
50 391
114 128
37 52
174 188
63 437
155 849
209 1058
55 69
70 85
207 221
11 26
63 64
148 162
169 850
29 309
4 5
44 59
25 293
117 705
207 998
136 718
37 38
33 324
87 533
122 136
196 211
155 170
48 434
132 702
96 111
18 33
70 71
88 534
130 131
188 203
26 293
11 12
170 185
224 1059
129 144
56 410
98 574
163 164
66 451
44 45
178 939
203 218
162 177
67 452
144 159
196 197
50 390
103 118
155 156
137 138
15 252
195 210
96 97
63 436
18 19
177 192
41 408
88 102
136 151
188 189
180 194
118 133
44 422
29 43
170 171
77 92
129 130
193 941
210 225
111 112
169 184
169 849
221 222
223 1058
29 308
151 166
203 204
62 76
110 125
162 163
154 168
144 145
202 217
3 17
25 292
51 66
103 104
117 704
207 997
95 109
85 86
87 532
143 158
155 169
119 713
187 201
134 711
177 178
36 50
136 137
209 1061
96 110
128 142
131 705
118 119
77 78
188 202
69 83
169 170
129 143
56 409
161 175
151 152
10 24
170 907
110 111
66 450
102 116
178 938
25 40
59 420
202 203
51 52
162 176
194 208
43 57
67 451
143 144
192 940
103 117
135 149
17 32
195 209
48 437
63 435
185 909
168 182
50 65
44 421
193 940
77 91
169 183
169 848
25 26
110 124
24 39
202 216
51 65
197 1013
84 99
57 472
17 18
143 157
176 191
119 712
9 23
134 710
117 132
62 434
41 411
131 704
209 224
58 73
150 165
31 46
170 906
223 1061
91 106
183 198
32 47
84 85
158 159
192 939
217 218
124 139
176 177
5 20
190 987
205 985
17 31
65 80
117 118
16 313
109 123
157 172
185 908
209 210
6 21
58 59
99 576
201 215
191 192
50 64
98 113
142 156
190 205
39 54
91 92
19 323
224 225
83 97
131 146
183 184
32 33
59 423
175 189
24 38
72 87
124 125
14 253
197 1012
84 98
57 471
116 130
164 179
216 217
65 66
176 190
208 222
119 711
198 199
57 71
157 158
6 7
117 131
133 713
149 163
139 140
197 212
98 99
209 223
58 72
90 104
190 191
39 40
150 164
30 309
182 196
172 173
208 999
36 389
72 473
131 132
55 411
123 137
223 224
184 907
72 73
183 197
32 46
58 422
64 78
164 165
192 938
124 138
156 170
5 19
190 986
38 53
205 984
65 79
97 111
16 312
197 198
130 145
51 391
157 171
185 907
62 437
6 20
99 575
189 203
212 1010
71 86
98 112
163 178
193 996
12 27
190 204
39 53
19 322
104 119
131 145
13 28
45 60
72 86
105 120
197 1011
137 152
57 470
38 39
164 178
34 325
211 1013
46 61
71 472
78 93
138 153
133 712
15 311
170 850
19 34
71 72
197 211
79 94
63 77
111 126
12 13
171 186
11 295
20 35
4 18
30 308
52 67
104 105
36 388
72 472
208 998
112 127
73 535
13 14
184 906
204 219
53 68
37 51
85 100
58 421
145 160
155 848
46 47
84 577
26 41
78 79
190 985
38 52
86 101
70 84
138 139
19 20
130 144
204 987
178 193
51 390
27 42
11 25
52 453
79 80
99 574
71 85
119 134
171 172
20 21
52 53
163 177
12 26
60 75
44 58
112 113
104 118
152 167
204 205
1 16
53 54
33 323
45 59
93 108
145 146
26 27
137 151
185 200
86 87
18 32
34 324
88 533
121 719
211 1012
71 471
78 92
26 292
126 141
178 179
27 28
138 152
186 201
170 184
133 711
15 310
170 849
19 33
224 1058
119 120
111 125
211 212
171 185
11 294
203 217
193 999
52 66
152 153
1 2
112 126
73 534
212 213
144 158
50 389
93 94
204 218
85 99
185 186
145 159
132 705
177 191
193 208
26 40
126 127
59 74
186 187
118 132
218 219
204 986
178 192
51 389
210 224
52 452
92 107
119 133
98 577
219 220
184 199
33 48
125 140
117 703
207 996
152 166
34 49
33 322
66 81
93 107
193 194
158 173
7 22
59 60
155 851
185 199
209 1060
88 532
67 82
211 1011
99 114
126 140
159 174
191 206
8 23
40 55
92 93
56 408
100 115
132 147
184 185
29 311
33 34
192 207
41 56
11 293
25 39
73 88
125 126
133 148
25 295
34 35
67 450
165 180
14 29
66 67
50 388
74 89
87 535
106 121
7 8
48 436
